InboundTrucks  = 8;
OutboundTrucks = 5;
InboundDoors   = 2;
OutboundDoors  = 1;
ReleaseTime    = [0,4,7,8,3,3,8,5];
UnloadTime     = [6,10,8,5,11,6,3,4];
LoadTime       = [2,8,9,6,9];
TransferTime   = [| 2,1,0,0,2 | 1,0,3,5,0 | 0,0,2,0,0 | 0,0,0,5,0 | 0,0,0,1,5 | 0,0,0,0,5 | 0,0,0,2,0 | 5,0,0,2,0 |];
